
Gurobi 8.1.1 (win64, Python) logging started 01/10/20 23:38:42

Academic license - for non-commercial use only

Gurobi 8.1.1 (win64, Python) logging started 01/10/20 23:39:14

Academic license - for non-commercial use only

Gurobi 8.1.1 (win64, Python) logging started 01/10/20 23:49:58

Academic license - for non-commercial use only

Gurobi 8.1.1 (win64, Python) logging started 01/10/20 23:53:28

Academic license - for non-commercial use only

Gurobi 8.1.1 (win64, Python) logging started 01/10/20 23:54:30

Academic license - for non-commercial use only

Gurobi 8.1.1 (win64, Python) logging started 01/10/20 23:59:22

Academic license - for non-commercial use only

Gurobi 8.1.1 (win64, Python) logging started 01/11/20 00:03:12

Academic license - for non-commercial use only
